Selected objective sense:  MINIMIZE
Selected objective  name:  OBJ
Selected RHS        name:  RHS1
CPXPARAM_Preprocessing_Presolve                  0
CPXPARAM_LPMethod                                4
CPXPARAM_Threads                                 1
CPXPARAM_SolutionType                            2
CPXPARAM_TimeLimit                               3600
Tried aggregator 0 times.
DUAL formed by presolve
Reduced presolve eliminated 209 rows and 16497 columns.
Reduced LP has 28194 rows, 8043 columns, and 1028663 nonzeros.
Presolve time = 0.42 sec. (328.31 ticks)
Parallel mode: none, using 1 thread for barrier

***NOTE: Found 52 dense columns.

Number of nonzeros in lower triangle of A*A' = 46490
Using Approximate Minimum Degree ordering
Total time for automatic ordering = 0.01 sec. (4.25 ticks)
Summary statistics for Cholesky factor:
  Rows in Factor            = 28246
  Integer space required    = 474325
  Total non-zeros in factor = 1372738
  Total FP ops to factor    = 70995644
 Itn      Primal Obj        Dual Obj  Prim Inf Upper Inf  Dual Inf Inf Ratio
   0  -1.4925338e+07   3.0319315e+06  8.79e+08  6.14e+03  2.92e+06  1.00e+00
   1  -1.7531490e+06   5.3160941e+05  8.43e+07  5.88e+02  7.67e+05  1.98e-03
   2  -2.2252682e+05   8.5170116e+04  8.20e+06  5.73e+01  1.86e+05  1.12e-02
   3  -5.9411559e+04   1.9031059e+04  2.10e+06  1.47e+01  4.70e+04  3.87e-02
   4  -4.3114795e+04   1.2642788e+04  1.52e+06  1.06e+01  3.12e+04  5.30e-02
   5  -1.7372190e+04   8.8062331e+03  6.15e+05  4.29e+00  2.17e+04  9.24e-02
   6  -1.6064908e+04   3.1229188e+03  5.62e+05  3.93e+00  1.03e+04  1.76e-01
   7  -1.0080927e+04   1.5272609e+03  3.43e+05  2.40e+00  5.99e+03  3.06e-01
   8  -4.3029795e+03  -3.0787783e+02  1.30e+05  9.07e-01  1.24e+03  2.49e+00
   9  -2.0173687e+03  -3.5807927e+02  5.39e+04  3.76e-01  5.59e+02  6.00e+00
  10  -1.3488620e+03  -3.8445678e+02  3.15e+04  2.20e-01  2.50e+02  1.50e+01
  11  -5.9591826e+02  -4.0216257e+02  6.36e+03  4.44e-02  3.82e+01  1.51e+02
  12  -5.7792872e+02  -4.0481526e+02  5.61e+03  3.92e-02  3.58e+01  1.63e+02
  13  -5.5565271e+02  -4.1895146e+02  4.62e+03  3.23e-02  2.48e+01  2.34e+02
  14  -5.4206451e+02  -4.1930577e+02  4.10e+03  2.86e-02  2.43e+01  2.41e+02
  15  -5.0646852e+02  -4.3071296e+02  2.63e+03  1.84e-02  1.26e+01  4.67e+02
  16  -4.9613760e+02  -4.3319266e+02  2.21e+03  1.54e-02  9.74e+00  5.97e+02
  17  -4.6165905e+02  -4.3803358e+02  7.81e+02  5.45e-03  4.83e+00  1.18e+03
  18  -4.5361563e+02  -4.4126709e+02  3.76e+02  2.62e-03  2.91e+00  2.04e+03
  19  -4.4980567e+02  -4.4197452e+02  1.76e+02  1.23e-03  2.51e+00  2.41e+03
  20  -4.4879825e+02  -4.4438387e+02  1.10e+02  7.67e-04  1.34e+00  4.91e+03
  21  -4.4788611e+02  -4.4552712e+02  5.70e+01  3.98e-04  7.30e-01  9.94e+03
  22  -4.4735450e+02  -4.4575943e+02  2.70e+01  1.88e-04  6.05e-01  1.23e+04
  23  -4.4717091e+02  -4.4602471e+02  1.55e+01  1.08e-04  4.67e-01  1.65e+04
  24  -4.4710316e+02  -4.4636972e+02  1.15e+01  8.01e-05  2.85e-01  2.94e+04
  25  -4.4693902e+02  -4.4661321e+02  3.26e+00  2.27e-05  1.47e-01  6.28e+04
  26  -4.4686637e+02  -4.4667442e+02  3.46e-01  2.41e-06  1.11e-01  8.39e+04
  27  -4.4685699e+02  -4.4684491e+02  2.59e-02  1.81e-07  6.88e-03  1.35e+06
  28  -4.4685629e+02  -4.4685567e+02  1.37e-03  9.53e-09  3.53e-04  2.63e+07
  29  -4.4685625e+02  -4.4685622e+02  6.84e-05  4.78e-10  1.93e-05  4.89e+08
  30  -4.4685625e+02  -4.4685625e+02  3.43e-06  2.39e-11  9.66e-07  9.77e+09
Barrier time = 2.69 sec. (3033.78 ticks)

Total time on 1 threads = 2.69 sec. (3033.78 ticks)
Solve time: 2.685581283
Barrier iterations: 30
